p cnf 386 460
-15 -4 -19 21 22 0
-15 -4 -19 21 -22 0
-15 -4 -19 -21 23 0
-15 -4 -19 -21 -23 0
18 -16 -19 24 25 0
18 -16 -19 24 -25 0
18 -16 -19 -24 26 0
18 -16 -19 -24 -26 0
-20 6 -10 27 28 0
-20 6 -10 27 -28 0
-20 6 -10 -27 29 0
-20 6 -10 -27 -29 0
16 7 -5 30 31 0
16 7 -5 30 -31 0
16 7 -5 -30 32 0
16 7 -5 -30 -32 0
9 20 -7 33 34 0
9 20 -7 33 -34 0
9 20 -7 -33 35 0
9 20 -7 -33 -35 0
-6 -19 5 36 37 0
-6 -19 5 36 -37 0
-6 -19 5 -36 38 0
-6 -19 5 -36 -38 0
14 19 -18 39 40 0
14 19 -18 39 -40 0
14 19 -18 -39 41 0
14 19 -18 -39 -41 0
-11 -20 10 42 43 0
-11 -20 10 42 -43 0
-11 -20 10 -42 44 0
-11 -20 10 -42 -44 0
-18 -1 -10 45 46 0
-18 -1 -10 45 -46 0
-18 -1 -10 -45 47 0
-18 -1 -10 -45 -47 0
18 5 4 48 49 0
18 5 4 48 -49 0
18 5 4 -48 50 0
18 5 4 -48 -50 0
-20 -19 -14 51 52 0
-20 -19 -14 51 -52 0
-20 -19 -14 -51 53 0
-20 -19 -14 -51 -53 0
10 -12 13 54 55 0
10 -12 13 54 -55 0
10 -12 13 -54 56 0
10 -12 13 -54 -56 0
-3 -8 -2 57 58 0
-3 -8 -2 57 -58 0
-3 -8 -2 -57 59 0
-3 -8 -2 -57 -59 0
17 -16 -19 60 61 0
17 -16 -19 60 -61 0
17 -16 -19 -60 62 0
17 -16 -19 -60 -62 0
4 -11 1 63 64 0
4 -11 1 63 -64 0
4 -11 1 -63 65 0
4 -11 1 -63 -65 0
-17 13 -20 66 67 0
-17 13 -20 66 -67 0
-17 13 -20 -66 68 0
-17 13 -20 -66 -68 0
-5 18 9 69 70 0
-5 18 9 69 -70 0
-5 18 9 -69 71 0
-5 18 9 -69 -71 0
19 -7 -13 72 73 0
19 -7 -13 72 -73 0
19 -7 -13 -72 74 0
19 -7 -13 -72 -74 0
-18 15 -7 75 76 0
-18 15 -7 75 -76 0
-18 15 -7 -75 77 0
-18 15 -7 -75 -77 0
-13 -6 11 78 79 0
-13 -6 11 78 -79 0
-13 -6 11 -78 80 0
-13 -6 11 -78 -80 0
-14 10 15 81 82 0
-14 10 15 81 -82 0
-14 10 15 -81 83 0
-14 10 15 -81 -83 0
-11 5 20 84 85 0
-11 5 20 84 -85 0
-11 5 20 -84 86 0
-11 5 20 -84 -86 0
-5 20 10 87 88 0
-5 20 10 87 -88 0
-5 20 10 -87 89 0
-5 20 10 -87 -89 0
-9 -18 3 90 91 0
-9 -18 3 90 -91 0
-9 -18 3 -90 92 0
-9 -18 3 -90 -92 0
15 -7 9 93 94 0
15 -7 9 93 -94 0
15 -7 9 -93 95 0
15 -7 9 -93 -95 0
8 13 -12 96 97 0
8 13 -12 96 -97 0
8 13 -12 -96 98 0
8 13 -12 -96 -98 0
5 -17 -16 99 100 0
5 -17 -16 99 -100 0
5 -17 -16 -99 101 0
5 -17 -16 -99 -101 0
-8 -1 -17 102 103 0
-8 -1 -17 102 -103 0
-8 -1 -17 -102 104 0
-8 -1 -17 -102 -104 0
5 7 14 105 106 0
5 7 14 105 -106 0
5 7 14 -105 107 0
5 7 14 -105 -107 0
-11 16 -15 108 109 0
-11 16 -15 108 -109 0
-11 16 -15 -108 110 0
-11 16 -15 -108 -110 0
-1 -9 -7 111 112 0
-1 -9 -7 111 -112 0
-1 -9 -7 -111 113 0
-1 -9 -7 -111 -113 0
-4 -16 10 114 115 0
-4 -16 10 114 -115 0
-4 -16 10 -114 116 0
-4 -16 10 -114 -116 0
15 7 12 117 118 0
15 7 12 117 -118 0
15 7 12 -117 119 0
15 7 12 -117 -119 0
-8 -12 2 120 121 0
-8 -12 2 120 -121 0
-8 -12 2 -120 122 0
-8 -12 2 -120 -122 0
5 8 -4 123 124 0
5 8 -4 123 -124 0
5 8 -4 -123 125 0
5 8 -4 -123 -125 0
-6 17 -4 126 127 0
-6 17 -4 126 -127 0
-6 17 -4 -126 128 0
-6 17 -4 -126 -128 0
-1 3 -6 129 130 0
-1 3 -6 129 -130 0
-1 3 -6 -129 131 0
-1 3 -6 -129 -131 0
15 -8 18 132 133 0
15 -8 18 132 -133 0
15 -8 18 -132 134 0
15 -8 18 -132 -134 0
-13 -19 14 135 136 0
-13 -19 14 135 -136 0
-13 -19 14 -135 137 0
-13 -19 14 -135 -137 0
3 18 15 138 139 0
3 18 15 138 -139 0
3 18 15 -138 140 0
3 18 15 -138 -140 0
3 8 20 141 142 0
3 8 20 141 -142 0
3 8 20 -141 143 0
3 8 20 -141 -143 0
2 6 -10 144 145 0
2 6 -10 144 -145 0
2 6 -10 -144 146 0
2 6 -10 -144 -146 0
19 -17 -4 147 148 0
19 -17 -4 147 -148 0
19 -17 -4 -147 149 0
19 -17 -4 -147 -149 0
-8 -13 -11 150 151 0
-8 -13 -11 150 -151 0
-8 -13 -11 -150 152 0
-8 -13 -11 -150 -152 0
-17 -13 19 153 154 0
-17 -13 19 153 -154 0
-17 -13 19 -153 155 0
-17 -13 19 -153 -155 0
-6 16 8 156 157 0
-6 16 8 156 -157 0
-6 16 8 -156 158 0
-6 16 8 -156 -158 0
16 12 -18 159 160 0
16 12 -18 159 -160 0
16 12 -18 -159 161 0
16 12 -18 -159 -161 0
20 -1 -13 162 163 0
20 -1 -13 162 -163 0
20 -1 -13 -162 164 0
20 -1 -13 -162 -164 0
20 -18 5 165 166 0
20 -18 5 165 -166 0
20 -18 5 -165 167 0
20 -18 5 -165 -167 0
3 -14 -16 168 169 0
3 -14 -16 168 -169 0
3 -14 -16 -168 170 0
3 -14 -16 -168 -170 0
-4 19 8 171 172 0
-4 19 8 171 -172 0
-4 19 8 -171 173 0
-4 19 8 -171 -173 0
1 5 -18 174 175 0
1 5 -18 174 -175 0
1 5 -18 -174 176 0
1 5 -18 -174 -176 0
-4 -6 7 177 178 0
-4 -6 7 177 -178 0
-4 -6 7 -177 179 0
-4 -6 7 -177 -179 0
12 2 -16 180 181 0
12 2 -16 180 -181 0
12 2 -16 -180 182 0
12 2 -16 -180 -182 0
-3 -1 20 183 184 0
-3 -1 20 183 -184 0
-3 -1 20 -183 185 0
-3 -1 20 -183 -185 0
14 -19 2 186 187 0
14 -19 2 186 -187 0
14 -19 2 -186 188 0
14 -19 2 -186 -188 0
-9 13 -12 189 190 0
-9 13 -12 189 -190 0
-9 13 -12 -189 191 0
-9 13 -12 -189 -191 0
16 12 2 192 193 0
16 12 2 192 -193 0
16 12 2 -192 194 0
16 12 2 -192 -194 0
20 -11 4 195 196 0
20 -11 4 195 -196 0
20 -11 4 -195 197 0
20 -11 4 -195 -197 0
11 15 2 198 199 0
11 15 2 198 -199 0
11 15 2 -198 200 0
11 15 2 -198 -200 0
-19 -5 1 201 202 0
-19 -5 1 201 -202 0
-19 -5 1 -201 203 0
-19 -5 1 -201 -203 0
-2 -6 -18 204 205 0
-2 -6 -18 204 -205 0
-2 -6 -18 -204 206 0
-2 -6 -18 -204 -206 0
-9 -3 15 207 208 0
-9 -3 15 207 -208 0
-9 -3 15 -207 209 0
-9 -3 15 -207 -209 0
18 -3 7 210 211 0
18 -3 7 210 -211 0
18 -3 7 -210 212 0
18 -3 7 -210 -212 0
17 -11 -12 213 214 0
17 -11 -12 213 -214 0
17 -11 -12 -213 215 0
17 -11 -12 -213 -215 0
-20 -2 15 216 217 0
-20 -2 15 216 -217 0
-20 -2 15 -216 218 0
-20 -2 15 -216 -218 0
7 16 12 219 220 0
7 16 12 219 -220 0
7 16 12 -219 221 0
7 16 12 -219 -221 0
-17 -18 -6 222 223 0
-17 -18 -6 222 -223 0
-17 -18 -6 -222 224 0
-17 -18 -6 -222 -224 0
15 -13 -20 225 226 0
15 -13 -20 225 -226 0
15 -13 -20 -225 227 0
15 -13 -20 -225 -227 0
11 -15 7 228 229 0
11 -15 7 228 -229 0
11 -15 7 -228 230 0
11 -15 7 -228 -230 0
-18 -16 -5 231 232 0
-18 -16 -5 231 -232 0
-18 -16 -5 -231 233 0
-18 -16 -5 -231 -233 0
-19 2 15 234 235 0
-19 2 15 234 -235 0
-19 2 15 -234 236 0
-19 2 15 -234 -236 0
-14 -3 -2 237 238 0
-14 -3 -2 237 -238 0
-14 -3 -2 -237 239 0
-14 -3 -2 -237 -239 0
-17 -9 10 240 241 0
-17 -9 10 240 -241 0
-17 -9 10 -240 242 0
-17 -9 10 -240 -242 0
-13 2 -4 243 244 0
-13 2 -4 243 -244 0
-13 2 -4 -243 245 0
-13 2 -4 -243 -245 0
3 -1 15 246 247 0
3 -1 15 246 -247 0
3 -1 15 -246 248 0
3 -1 15 -246 -248 0
6 -11 20 249 250 0
6 -11 20 249 -250 0
6 -11 20 -249 251 0
6 -11 20 -249 -251 0
-15 -19 5 252 253 0
-15 -19 5 252 -253 0
-15 -19 5 -252 254 0
-15 -19 5 -252 -254 0
11 -2 -12 255 256 0
11 -2 -12 255 -256 0
11 -2 -12 -255 257 0
11 -2 -12 -255 -257 0
-19 -13 3 258 259 0
-19 -13 3 258 -259 0
-19 -13 3 -258 260 0
-19 -13 3 -258 -260 0
1 16 17 261 262 0
1 16 17 261 -262 0
1 16 17 -261 263 0
1 16 17 -261 -263 0
-13 -19 -17 264 265 0
-13 -19 -17 264 -265 0
-13 -19 -17 -264 266 0
-13 -19 -17 -264 -266 0
16 14 12 267 268 0
16 14 12 267 -268 0
16 14 12 -267 269 0
16 14 12 -267 -269 0
-2 17 -6 270 271 0
-2 17 -6 270 -271 0
-2 17 -6 -270 272 0
-2 17 -6 -270 -272 0
-12 3 9 273 274 0
-12 3 9 273 -274 0
-12 3 9 -273 275 0
-12 3 9 -273 -275 0
-16 1 20 276 277 0
-16 1 20 276 -277 0
-16 1 20 -276 278 0
-16 1 20 -276 -278 0
-19 -20 6 279 280 0
-19 -20 6 279 -280 0
-19 -20 6 -279 281 0
-19 -20 6 -279 -281 0
-9 7 19 282 283 0
-9 7 19 282 -283 0
-9 7 19 -282 284 0
-9 7 19 -282 -284 0
4 9 2 285 286 0
4 9 2 285 -286 0
4 9 2 -285 287 0
4 9 2 -285 -287 0
-6 13 8 288 289 0
-6 13 8 288 -289 0
-6 13 8 -288 290 0
-6 13 8 -288 -290 0
-18 -3 -8 291 292 0
-18 -3 -8 291 -292 0
-18 -3 -8 -291 293 0
-18 -3 -8 -291 -293 0
294 295 297 301 309 0
294 295 297 301 -309 0
294 295 297 -301 310 0
294 295 297 -301 -310 0
294 295 -297 302 311 0
294 295 -297 302 -311 0
294 295 -297 -302 312 0
294 295 -297 -302 -312 0
294 -295 298 303 313 0
294 -295 298 303 -313 0
294 -295 298 -303 314 0
294 -295 298 -303 -314 0
294 -295 -298 304 315 0
294 -295 -298 304 -315 0
294 -295 -298 -304 316 0
294 -295 -298 -304 -316 0
-294 296 299 305 317 0
-294 296 299 305 -317 0
-294 296 299 -305 318 0
-294 296 299 -305 -318 0
-294 296 -299 306 319 0
-294 296 -299 306 -319 0
-294 296 -299 -306 320 0
-294 296 -299 -306 -320 0
-294 -296 300 307 321 0
-294 -296 300 307 -321 0
-294 -296 300 -307 322 0
-294 -296 300 -307 -322 0
-294 -296 -300 308 323 0
-294 -296 -300 308 -323 0
-294 -296 -300 -308 324 0
-294 -296 -300 -308 -324 0
325 326 328 332 340 0
325 326 328 332 -340 0
325 326 328 -332 341 0
325 326 328 -332 -341 0
325 326 -328 333 342 0
325 326 -328 333 -342 0
325 326 -328 -333 343 0
325 326 -328 -333 -343 0
325 -326 329 334 344 0
325 -326 329 334 -344 0
325 -326 329 -334 345 0
325 -326 329 -334 -345 0
325 -326 -329 335 346 0
325 -326 -329 335 -346 0
325 -326 -329 -335 347 0
325 -326 -329 -335 -347 0
-325 327 330 336 348 0
-325 327 330 336 -348 0
-325 327 330 -336 349 0
-325 327 330 -336 -349 0
-325 327 -330 337 350 0
-325 327 -330 337 -350 0
-325 327 -330 -337 351 0
-325 327 -330 -337 -351 0
-325 -327 331 338 352 0
-325 -327 331 338 -352 0
-325 -327 331 -338 353 0
-325 -327 331 -338 -353 0
-325 -327 -331 339 354 0
-325 -327 -331 339 -354 0
-325 -327 -331 -339 355 0
-325 -327 -331 -339 -355 0
356 357 359 363 371 0
356 357 359 363 -371 0
356 357 359 -363 372 0
356 357 359 -363 -372 0
356 357 -359 364 373 0
356 357 -359 364 -373 0
356 357 -359 -364 374 0
356 357 -359 -364 -374 0
356 -357 360 365 375 0
356 -357 360 365 -375 0
356 -357 360 -365 376 0
356 -357 360 -365 -376 0
356 -357 -360 366 377 0
356 -357 -360 366 -377 0
356 -357 -360 -366 378 0
356 -357 -360 -366 -378 0
-356 358 361 367 379 0
-356 358 361 367 -379 0
-356 358 361 -367 380 0
-356 358 361 -367 -380 0
-356 358 -361 368 381 0
-356 358 -361 368 -381 0
-356 358 -361 -368 382 0
-356 358 -361 -368 -382 0
-356 -358 362 369 383 0
-356 -358 362 369 -383 0
-356 -358 362 -369 384 0
-356 -358 362 -369 -384 0
-356 -358 -362 370 385 0
-356 -358 -362 370 -385 0
-356 -358 -362 -370 386 0
-356 -358 -362 -370 -386 0

